words_hard_train/4087.qaiger
aag 74 19 0 1 55
2
4
8
12
16
18
22
26
30
34
44
48
62
74
76
92
94
106
108
149
6 2 4
10 6 8
14 12 2
20 16 18
24 20 22
28 24 26
32 28 30
36 33 35
38 32 34
40 37 39
42 15 41
46 44 2
50 39 49
52 38 48
54 51 53
56 47 55
58 43 57
60 14 40
64 62 2
66 29 31
68 67 33
70 64 68
72 61 71
78 74 76
80 25 27
82 81 29
84 79 83
86 65 69
88 85 87
90 21 23
96 92 94
98 91 96
100 98 25
102 17 19
104 103 21
110 106 108
112 97 23
114 110 113
116 104 114
118 101 117
120 78 82
122 118 121
124 88 123
126 72 125
128 58 127
130 128 52
132 10 131
134 7 9
136 135 53
138 46 51
140 136 139
142 141 131
144 135 128
146 143 145
148 133 147
i0 2 y1[7]
i1 1 x1[6]
i2 2 y2[7]
i3 1 x1[4]
i4 2 y2[0]
i5 2 y2[1]
i6 2 y2[2]
i7 2 y2[3]
i8 2 y2[4]
i9 2 y2[5]
i10 1 x1[5]
i11 2 y2[6]
i12 1 x1[3]
i13 2 y1[6]
i14 1 x1[2]
i15 2 y1[5]
i16 1 x1[1]
i17 2 y1[4]
i18 1 x1[0]
o0 bv[0]
c
simplified
  <
    and
      << 1
        1 x1
      >> 3
        2 y1
    invert
      2 y2
