words_hard_train/4087.qaiger.qdimacs
p cnf 74 166
a 2 38 6 47 22 54 31 0
e 1 3 4 5 7 8 9 10 11 12 13 14 15 16 17 18 19 20 21 23 24 25 26 27 28 29 30 32 33 34 35 36 37 39 40 41 42 43 44 45 46 48 49 50 51 52 53 55 56 57 58 59 60 61 62 63 64 65 66 67 68 69 70 71 72 73 74 0
-1 -2 3 0
1 -3 0
2 -3 0
-3 -4 5 0
3 -5 0
4 -5 0
-6 -1 7 0
6 -7 0
1 -7 0
-8 -9 10 0
8 -10 0
9 -10 0
-10 -11 12 0
10 -12 0
11 -12 0
-12 -13 14 0
12 -14 0
13 -14 0
-14 -15 16 0
14 -16 0
15 -16 0
16 17 18 0
-16 -18 0
-17 -18 0
-16 -17 19 0
16 -19 0
17 -19 0
18 19 20 0
-18 -20 0
-19 -20 0
7 20 21 0
-7 -21 0
-20 -21 0
-22 -1 23 0
22 -23 0
1 -23 0
19 24 25 0
-19 -25 0
-24 -25 0
-19 -24 26 0
19 -26 0
24 -26 0
25 26 27 0
-25 -27 0
-26 -27 0
23 27 28 0
-23 -28 0
-27 -28 0
21 28 29 0
-21 -29 0
-28 -29 0
-7 -20 30 0
7 -30 0
20 -30 0
-31 -1 32 0
31 -32 0
1 -32 0
14 15 33 0
-14 -33 0
-15 -33 0
33 16 34 0
-33 -34 0
-16 -34 0
-32 -34 35 0
32 -35 0
34 -35 0
30 35 36 0
-30 -36 0
-35 -36 0
-37 -38 39 0
37 -39 0
38 -39 0
12 13 40 0
-12 -40 0
-13 -40 0
40 14 41 0
-40 -41 0
-14 -41 0
39 41 42 0
-39 -42 0
-41 -42 0
32 34 43 0
-32 -43 0
-34 -43 0
42 43 44 0
-42 -44 0
-43 -44 0
10 11 45 0
-10 -45 0
-11 -45 0
-46 -47 48 0
46 -48 0
47 -48 0
45 -48 49 0
-45 -49 0
48 -49 0
-49 12 50 0
49 -50 0
-12 -50 0
8 9 51 0
-8 -51 0
-9 -51 0
51 10 52 0
-51 -52 0
-10 -52 0
-53 -54 55 0
53 -55 0
54 -55 0
48 11 56 0
-48 -56 0
-11 -56 0
-55 56 57 0
55 -57 0
-56 -57 0
-52 -57 58 0
52 -58 0
57 -58 0
50 58 59 0
-50 -59 0
-58 -59 0
-39 -41 60 0
39 -60 0
41 -60 0
-59 60 61 0
59 -61 0
-60 -61 0
-44 61 62 0
44 -62 0
-61 -62 0
-36 62 63 0
36 -63 0
-62 -63 0
-29 63 64 0
29 -64 0
-63 -64 0
-64 -26 65 0
64 -65 0
26 -65 0
-5 65 66 0
5 -66 0
-65 -66 0
3 4 67 0
-3 -67 0
-4 -67 0
67 26 68 0
-67 -68 0
-26 -68 0
-23 25 69 0
23 -69 0
-25 -69 0
-68 69 70 0
68 -70 0
-69 -70 0
70 65 71 0
-70 -71 0
-65 -71 0
67 -64 72 0
-67 -72 0
64 -72 0
71 72 73 0
-71 -73 0
-72 -73 0
66 73 74 0
-66 -74 0
-73 -74 0
-74 0
